n_res = 4;
rc = [ 10, 13, 10, 10 ];
n_tasks = 30;
d = [ 7, 6, 2, 1, 10, 4, 9, 10, 8, 4, 9, 1, 9, 10, 8, 9, 5, 3, 6, 1, 7, 7, 6, 1, 3, 9, 2, 1, 2, 9 ];
rr = [| 10, 10, 10, 10, 10, 10, 10, 10, 10, 10, 10, 10, 10, 10, 10, 10, 10, 10, 10, 10, 10, 10, 10, 10, 10, 10, 10, 10, 10, 10
      | 13, 13, 13, 13, 13, 13, 13, 13, 13, 13, 13, 13, 13, 13, 13, 13, 13, 13, 13, 13, 13, 13, 13, 13, 13, 13, 13, 13, 13, 13
      | 10, 10, 10, 10, 10, 10, 10, 10, 10, 10, 10, 10, 10, 10, 10, 10, 10, 10, 10, 10, 10, 10, 10, 10, 10, 10, 10, 10, 10, 10
      | 10, 10, 10, 10, 10, 10, 10, 10, 10, 10, 10, 10, 10, 10, 10, 10, 10, 10, 10, 10, 10, 10, 10, 10, 10, 10, 10, 10, 10, 10|];
suc = [ { 6, 10, 17 },
       { 9, 15, 17 },
       { 4, 7, 9 },
       { 5, 11, 17 },
       { 13, 23 },
       { 8, 14, 15 },
       { 10, 16, 20 },
       { 16, 30 },
       { 12, 13, 24 },
       { 13, 14, 18 },
       { 12, 18, 28 },
       { 30 },
       { 21, 25, 29 },
       { 22, 26, 27 },
       { 16, 19, 20 },
       { 25, 27 },
       { 19, 20 },
       { 22, 29 },
       { 21, 23, 24 },
       { 21, 23, 24 },
       { 22, 26 },
       { 30 },
       { 27 },
       { 25 },
       { 26 },
       { 28 },
       { 28, 29 },
       {  },
       {  },
       {  } ];
